min: 1 x1 + 1 x2 + 1 x3 + 1 x4 + 1 x5 + 1 x6 + 1 x7 + 1 x8 + 1 x9 + 1 x10 + 1 x11 + 1 x12 + 1 x13 + 1 x14 + 1 x15 + 1 x16 + 1 x17 + 1 x18 + 1 x19 + 1 x20;

r1: x5 + x4 + x12 + x3 + x11 + x20 + x19 + x9 >= 1;
r2: x15 + x12 + x6 >= 1;
r3: x15 + x20 + x6 + x2 + x8 + x7 >= 1;
r4: x4 + x12 + x14 + x8 + x2 + x9 + x6 >= 1;
r5: x19 + x5 + x11 >= 1;
r6: x16 + x5 >= 1;
r7: x9 + x1 + x16 + x18 + x4 + x10 >= 1;
r8: x3 + x6 + x2 + x20 + x11 + x8 >= 1;
r9: x17 + x4 + x5 + x2 + x13 + x12 + x14 + x18 >= 1;
r10: x14 + x11 + x5 + x16 + x15 + x9 >= 1;
r11: x9 + x17 + x15 + x20 + x6 + x16 + x8 >= 1;
r12: x3 + x6 + x7 + x1 >= 1;
r13: x16 >= 1;
r14: x5 + x19 + x17 + x6 + x4 + x7 >= 1;
r15: x7 + x15 + x18 + x20 + x19 + x2 >= 1;
r16: x11 + x20 + x2 + x18 + x13 + x12 + x14 + x10 >= 1;
r17: x13 + x7 + x4 + x10 + x20 + x9 >= 1;
r18: x12 + x2 + x16 + x6 >= 1;
r19: x13 + x17 + x9 + x10 + x1 + x15 + x8 + x3 >= 1;
r20: x13 + x9 + x5 + x15 >= 1;
r21: x14 + x1 + x9 >= 1;
r22: x4 + x13 + x3 >= 1;
r23: x19 + x3 + x2 + x8 >= 1;
r24: x16 + x13 + x9 + x14 + x20 + x6 + x7 + x18 >= 1;
r25: x9 + x5 + x12 + x19 + x17 >= 1;
r26: x10 >= 1;
r27: x13 + x7 + x18 + x16 + x3 + x1 >= 1;
r28: x8 + x16 >= 1;
r29: x2 + x7 + x11 + x16 >= 1;
r30: x2 + x19 + x6 + x17 + x11 >= 1;
r31: x8 + x13 + x4 + x17 + x18 + x20 + x16 + x15 >= 1;
r32: x2 + x20 + x15 + x6 + x13 + x11 >= 1;
r33: x3 >= 1;
r34: x5 + x6 + x20 + x3 >= 1;
r35: x19 + x9 >= 1;
r36: x3 + x10 >= 1;
r37: x14 + x13 + x2 + x9 + x11 + x4 >= 1;
r38: x15 + x5 + x18 + x12 + x14 + x4 + x7 >= 1;
r39: x17 + x16 + x9 + x6 >= 1;
r40: x5 + x9 + x15 >= 1;
r41: x17 + x11 + x16 + x6 + x9 + x7 + x20 >= 1;
r42: x8 >= 1;
r43: x9 + x5 + x12 + x17 >= 1;
r44: x15 + x1 + x9 + x13 + x11 + x5 + x7 >= 1;
r45: x13 + x17 >= 1;
r46: x11 + x18 + x6 + x14 >= 1;
r47: x1 + x7 + x8 + x5 + x15 >= 1;
r48: x14 + x12 >= 1;
r49: x6 + x2 + x11 + x20 + x12 >= 1;
r50: x10 + x17 + x8 + x15 + x5 >= 1;
r51: x11 + x4 + x15 + x19 >= 1;
r52: x3 + x13 >= 1;
r53: x10 + x13 + x19 + x7 + x20 + x16 + x15 + x2 >= 1;
r54: x16 + x6 + x1 + x11 + x20 + x8 + x13 + x12 >= 1;
r55: x4 + x8 + x19 + x9 + x5 + x17 + x15 + x18 >= 1;
r56: x14 >= 1;
r57: x11 + x16 + x12 + x3 + x1 + x4 >= 1;
r58: x13 + x16 >= 1;
r59: x10 + x17 + x7 + x9 + x15 + x5 + x19 >= 1;
r60: x1 + x11 + x9 + x15 + x18 >= 1;

bin x1, x2, x3, x4, x5, x6, x7, x8, x9, x10, x11, x12, x13, x14, x15, x16, x17, x18, x19, x20;
